pair_coeff 26 26 lj/charmm/coul/long 0.0208 2.60017699876
pair_coeff 25 25 lj/charmm/coul/long 0.0161 2.62547852236
pair_coeff 27 27 lj/charmm/coul/long 0.0100 1.10649620793
pair_coeff 28 28 lj/charmm/coul/long 0.0047 0.537924646013
pair_coeff 30 30 lj/charmm/coul/long 0.0124 1.08903459305
pair_coeff 29 29 lj/charmm/coul/long 0.0144 1.07460203382
pair_coeff 61 61 lj/charmm/coul/long 0.1463 3.04812087425
pair_coeff 63 63 lj/charmm/coul/long 0.0726 3.15609779888
pair_coeff 62 62 lj/charmm/coul/long 0.0930 3.24287133403
pair_coeff 5 5 lj/charmm/coul/long 0.1078 3.39770953124
pair_coeff 4 4 lj/charmm/coul/long 0.0988 3.31521230994
pair_coeff 3 3 lj/charmm/coul/long 0.1596 3.47895949434
pair_coeff 37 37 lj/charmm/coul/long 0.1636 3.18086478325
pair_coeff 76 76 lj/charmm/coul/long 0.2824 3.53241341743
pair_coeff 65 65 lj/charmm/coul/long 0.2295 3.6940224449
pair_coeff 33 33 lj/charmm/coul/long 0.0832 3.03422285424
pair_coeff 34 34 lj/charmm/coul/long 0.2638 3.46595237305
pair_coeff 35 35 lj/charmm/coul/long 0.3932 3.61259430206
pair_coeff 36 36 lj/charmm/coul/long 0.4955 3.84119891313
pair_coeff 38 38 lj/charmm/coul/long 0.1098 3.27351824993
pair_coeff 39 39 lj/charmm/coul/long 0.0941 3.38416787073
pair_coeff 40 40 lj/charmm/coul/long 0.0858 3.36510263816
pair_coeff 42 42 lj/charmm/coul/long 0.2042 3.20580994736
pair_coeff 48 48 lj/charmm/coul/long 0.2150 3.18995195017
pair_coeff 55 55 lj/charmm/coul/long 0.7828 2.85586493087
pair_coeff 60 60 lj/charmm/coul/long 0.0095 4.04468018036
pair_coeff 20 20 lj/charmm/coul/long 0.0208 2.42199725514
pair_coeff 21 21 lj/charmm/coul/long 0.0208 2.24381751151
pair_coeff 22 22 lj/charmm/coul/long 0.0208 2.06563776788
pair_coeff 32 32 lj/charmm/coul/long 0.0208 1.88745802425
pair_coeff 23 23 lj/charmm/coul/long 0.0161 2.53638865055
pair_coeff 24 24 lj/charmm/coul/long 0.0161 2.44729877873
pair_coeff 15 15 lj/charmm/coul/long 0.1078 3.39770953124
pair_coeff 16 16 lj/charmm/coul/long 0.1078 3.39770953124
pair_coeff 1 1 lj/charmm/coul/long 0.0988 3.31521230994
pair_coeff 2 2 lj/charmm/coul/long 0.0988 3.31521230994
pair_coeff 6 6 lj/charmm/coul/long 0.0988 3.31521230994
pair_coeff 9 9 lj/charmm/coul/long 0.0988 3.31521230994
pair_coeff 10 10 lj/charmm/coul/long 0.0988 3.31521230994
pair_coeff 11 11 lj/charmm/coul/long 0.0988 3.31521230994
pair_coeff 12 12 lj/charmm/coul/long 0.0988 3.31521230994
pair_coeff 7 7 lj/charmm/coul/long 0.0988 3.31521230994
pair_coeff 8 8 lj/charmm/coul/long 0.0988 3.31521230994
pair_coeff 19 19 lj/charmm/coul/long 0.0988 3.31521230994
pair_coeff 13 13 lj/charmm/coul/long 0.1596 3.47895949434
pair_coeff 14 14 lj/charmm/coul/long 0.1596 3.47895949434
pair_coeff 17 17 lj/charmm/coul/long 0.0988 3.31521230994
pair_coeff 18 18 lj/charmm/coul/long 0.0988 3.31521230994
pair_coeff 43 43 lj/charmm/coul/long 0.0941 3.38416787073
pair_coeff 44 44 lj/charmm/coul/long 0.0941 3.38416787073
pair_coeff 45 45 lj/charmm/coul/long 0.0941 3.38416787073
pair_coeff 46 46 lj/charmm/coul/long 0.0941 3.38416787073
pair_coeff 47 47 lj/charmm/coul/long 0.0941 3.38416787073
pair_coeff 49 49 lj/charmm/coul/long 0.0858 3.36510263816
pair_coeff 58 58 lj/charmm/coul/long 0.0522 3.50764643306
pair_coeff 59 59 lj/charmm/coul/long 0.0323 3.65019022796
pair_coeff 41 41 lj/charmm/coul/long 3.8748 2.49950544361
pair_coeff 52 52 lj/charmm/coul/long 2.5453 2.58859531543
pair_coeff 53 53 lj/charmm/coul/long 1.6959 2.67768518724
pair_coeff 54 54 lj/charmm/coul/long 1.1450 2.76677505906
pair_coeff 50 50 lj/charmm/coul/long 0.1174 3.26995465506
pair_coeff 51 51 lj/charmm/coul/long 0.0851 3.35904452688
pair_coeff 56 56 lj/charmm/coul/long 0.1545 3.27904182199
pair_coeff 57 57 lj/charmm/coul/long 0.1120 3.3681316938
pair_coeff 77 77 lj/charmm/coul/long 0.2824 3.53241341743
pair_coeff 78 78 lj/charmm/coul/long 0.2824 3.53241341743
pair_coeff 79 79 lj/charmm/coul/long 0.2824 3.53241341743
pair_coeff 82 82 lj/charmm/coul/long 0.2824 3.53241341743
pair_coeff 83 83 lj/charmm/coul/long 0.2824 3.53241341743
pair_coeff 80 80 lj/charmm/coul/long 0.2824 3.53241341743
pair_coeff 81 81 lj/charmm/coul/long 0.2824 3.53241341743
pair_coeff 66 66 lj/charmm/coul/long 0.2295 3.6940224449
pair_coeff 67 67 lj/charmm/coul/long 0.2295 3.6940224449
pair_coeff 68 68 lj/charmm/coul/long 0.2295 3.6940224449
pair_coeff 69 69 lj/charmm/coul/long 0.2295 3.6940224449
pair_coeff 74 74 lj/charmm/coul/long 0.2295 3.6940224449
pair_coeff 75 75 lj/charmm/coul/long 0.2295 3.6940224449
pair_coeff 70 70 lj/charmm/coul/long 0.2295 3.6940224449
pair_coeff 71 71 lj/charmm/coul/long 0.2295 3.6940224449
pair_coeff 72 72 lj/charmm/coul/long 0.2295 3.6940224449
pair_coeff 73 73 lj/charmm/coul/long 0.2295 3.6940224449
pair_coeff 31 31 lj/charmm/coul/long 0.0000 0.0
pair_coeff 64 64 lj/charmm/coul/long 0.1520 3.15075240658
pair_coeff 84 84 lj/charmm/coul/long 0.0279896 1.82634237
pair_coeff 85 85 lj/charmm/coul/long 0.1936829 3.03796463
pair_coeff 86 86 lj/charmm/coul/long 0.0874393 2.43928069
pair_coeff 87 87 lj/charmm/coul/long 0.0355910 4.47765696
pair_coeff 88 88 lj/charmm/coul/long 0.0033640 4.1034795
pair_coeff 89 89 lj/charmm/coul/long 0.0586554 4.64692771
pair_coeff 90 90 lj/charmm/coul/long 0.0536816 5.09594067
    #bond_coeff @bond:ow-hw harmonic 612.98 0.957   # TIP3P_Water 1 old values
    #bond_coeff @bond:hw-hw harmonic 15.17 1.514   # TIP3P_Water 1 old values
    bond_coeff 1 harmonic 553.0 0.957   # TIP3P_Water in frcmod.tip3p
    bond_coeff 2 harmonic 553.0 1.514   # TIP3P_Water in frcmod.tip3p
    bond_coeff 3 harmonic 81.01 2.542   # SOURCE1 4
    bond_coeff 4 harmonic 227.01 1.787   # SOURCE2 4 0.0024
    bond_coeff 5 harmonic 168.91 1.893   # SOURCE1_SOURCE5 25 0.0078
    bond_coeff 6 harmonic 146.48 1.946   # SOURCE2 2 0.0285
    bond_coeff 7 harmonic 134.73 1.978   # SOURCE1_SOURCE5 146 0.0118
    bond_coeff 8 harmonic 162.15 1.908   # SOURCE1_SOURCE5 462 0.0052
    bond_coeff 9 harmonic 172.53 1.885   # SOURCE4_SOURCE5 128 0.0078
    bond_coeff 10 harmonic 154.63 1.926   # SOURCE1_SOURCE5 11 0.0019
    bond_coeff 11 harmonic 141.51 1.860   # SOUECE3 1
    bond_coeff 12 harmonic 88.47 2.038   # SOURCE3 5 0.1082
    bond_coeff 13 harmonic 136.53 1.873   # SOURCE3 4 0.0046
    bond_coeff 14 harmonic 110.41 1.952   # SOURCE3 2
    bond_coeff 15 harmonic 118.29 1.926   # SOURCE3 3 0.0013
    bond_coeff 16 harmonic 96.95 2.002   # SOURCE3 7 0.2156
    bond_coeff 17 harmonic 112.77 1.944   # SOURCE3 1
    bond_coeff 18 harmonic 75.65 2.101   # SOURCE3 1
    bond_coeff 19 harmonic 193.58 1.800   # SOUECE3 1
    bond_coeff 20 harmonic 160.87 1.866   # SOURCE3 1
    bond_coeff 21 harmonic 151.88 1.887   # SOURCE3 2
    bond_coeff 22 harmonic 133.12 2.210   # SOURCE3 9 0.0510
    bond_coeff 23 harmonic 126.80 2.231   # SOURCE3 3 0.0101
    bond_coeff 24 harmonic 145.88 2.171   # SOUECE3 1
    bond_coeff 25 harmonic 137.54 2.196   # SOURCE3 3 0.0099
    bond_coeff 26 harmonic 169.20 2.220   # SOUECE3 1
    bond_coeff 27 harmonic 128.80 2.341   # SOURCE3 1
    bond_coeff 28 harmonic 171.57 2.214   # SOURCE3 3 0.0443
    bond_coeff 29 harmonic 173.58 2.209   # SOURCE3 1
    bond_coeff 30 harmonic 176.02 2.203   # SOURCE3 3 0.0035
    bond_coeff 31 harmonic 837.28 1.198   # SOURCE1_SOURCE5 659 0.0039
    bond_coeff 32 harmonic 535.85 1.307   # SOURCE1 18
    bond_coeff 33 harmonic 295.86 1.467   # SOURCE1_SOURCE5 795 0.0034
    bond_coeff 34 harmonic 325.62 1.440   # SOUECE3 1
    bond_coeff 35 harmonic 518.69 1.315   # SOURCE4 6 0.0086
    bond_coeff 36 harmonic 776.82 1.216   # SOURCE3_SOURCE5 179 0.0036
    bond_coeff 37 harmonic 765.43 1.219   # SOURCE3_SOURCE5 13 0.0016
    bond_coeff 38 harmonic 261.49 1.631   # SOURCE2 6 0.0050
    bond_coeff 39 harmonic 320.55 1.444   # SOURCE1_SOURCE5 24 0.0043
    bond_coeff 40 harmonic 482.19 1.270   # SOURCE2 2 0.0085
    bond_coeff 41 harmonic 433.72 1.067   # SOURCE3_SOURCE5 343 0.0013
    bond_coeff 42 harmonic 448.21 1.060   # SOUECE3 1
    bond_coeff 43 harmonic 153.51 1.989   # SOURCE2 4 0.0032
    bond_coeff 44 harmonic 891.54 1.153   # SOURCE1_SOURCE5 481 0.0035
    bond_coeff 45 harmonic 736.75 1.197   # SOURCE3_SOURCE5 36 0.0076
    bond_coeff 46 harmonic 400.99 1.347   # SOURCE2_SOURCE5 10 0.0093
    bond_coeff 47 harmonic 309.65 1.417   # SOURCE3 3 0.0032
    bond_coeff 48 harmonic 428.86 1.330   # SOUECE3 1
    bond_coeff 49 harmonic 379.52 1.362   # SOURCE3 8 0.0034
    bond_coeff 50 harmonic 720.51 1.202   # SOURCE4_SOURCE5 31 0.0124
    bond_coeff 51 harmonic 720.51 1.202   # SOURCE4_SOURCE5 21 0.0141
    bond_coeff 52 harmonic 409.04 1.342   # SOURCE4_SOURCE5 33 0.0061
    bond_coeff 53 harmonic 323.48 1.405   # SOURCE3 3 0.0005
    bond_coeff 54 harmonic 794.98 1.172   # SOURCE2_SOURCE5 31 0.0068
    bond_coeff 55 harmonic 422.21 1.326   # SOURCE3 1
    bond_coeff 56 harmonic 435.38 1.318   # SOURCE3_SOURCE5 8 0.0079
    bond_coeff 57 harmonic 215.98 1.770   # SOUECE3 1
    bond_coeff 58 harmonic 203.86 1.790   # SOUECE3 1
    bond_coeff 59 harmonic 203.86 1.790   # SOUECE3 1
    bond_coeff 60 harmonic 226.96 1.753   # SOURCE3 2
    bond_coeff 61 harmonic 380.51 1.595   # SOURCE3 1
    bond_coeff 62 harmonic 370.61 1.603   # SOURCE1_SOURCE5 37 0.0043
    bond_coeff 63 harmonic 239.03 1.746   # SOURCE3 2
    bond_coeff 64 harmonic 256.65 1.722   # SOURCE3 2
    bond_coeff 65 harmonic 291.39 1.680   # SOUECE3 1
    bond_coeff 66 harmonic 282.80 1.690   # SOURCE1_SOURCE5 49 0.0113
    bond_coeff 67 harmonic 481.83 1.334   # SOURCE1_SOURCE5 3727 0.0053
    bond_coeff 68 harmonic 255.56 1.510   # SOURCE1_SOURCE5 10204 0.0042
    bond_coeff 69 harmonic 398.37 1.385   # SOUECE3_SOURCE5 9 0.0149
    bond_coeff 70 harmonic 437.98 1.359   # SOURCE1_SOURCE5 882 0.0181
    bond_coeff 71 harmonic 437.98 1.359   # SOURCE1_SOURCE5 882 0.0181
    bond_coeff 72 harmonic 460.51 1.346   # SOURCE3_SOURCE5 3239 0.0058
    bond_coeff 73 harmonic 460.51 1.346   # SOURCE3_SOURCE5 3177 0.0057
    bond_coeff 74 harmonic 192.70 1.731   # SOURCE1_SOURCE5 290 0.0098
    bond_coeff 75 harmonic 500.05 1.325   # SOURCE2_SOURCE5 11 0.0010
    bond_coeff 76 harmonic 278.37 1.485   # SOURCE4_SOURCE5 102 0.0061
    bond_coeff 77 harmonic 255.91 1.509   # SOURCE4_SOURCE5 30 0.0063
    bond_coeff 78 harmonic 368.08 1.339   # SOURCE1_SOURCE5 35 0.0085
    bond_coeff 79 harmonic 394.23 1.087   # SOURCE3_SOURCE5 517 0.0028
    bond_coeff 80 harmonic 386.13 1.091   # SOURCE4_SOURCE5 116 0.0021
    bond_coeff 81 harmonic 392.18 1.088   # SOURCE3_SOURCE5 5991 0.0019
    bond_coeff 82 harmonic 393.86 1.087   # SOURCE3 789 0.0046
    bond_coeff 83 harmonic 401.39 1.083   # SOURCE3 3 0.0008
    bond_coeff 84 harmonic 98.09 2.170   # SOURCE3_SOURCE5 7 0.0194
    bond_coeff 85 harmonic 470.94 1.306   # SOURCE3 4 0.0161
    bond_coeff 86 harmonic 518.67 1.282   # SOURCE1_SOURCE5 1004 0.0051
    bond_coeff 87 harmonic 412.66 1.340   # SOUECE3 1
    bond_coeff 88 harmonic 330.19 1.399   # SOURCE3_SOURCE5 174 0.0100
    bond_coeff 89 harmonic 221.45 1.512   # SOURCE3_SOURCE5 21 0.0133
    bond_coeff 90 harmonic 327.66 1.401   # SOURCE3_SOURCE5 65 0.0179
    bond_coeff 91 harmonic 458.17 1.313   # SOURCE1 99 0.0095
    bond_coeff 92 harmonic 458.17 1.313   # SOURCE1 99
    bond_coeff 93 harmonic 498.75 1.292   # SOURCE3_SOURCE5 310 0.0099
    bond_coeff 94 harmonic 498.75 1.292   # SOURCE3_SOURCE5 273 0.0098
    bond_coeff 95 harmonic 345.39 1.387   # SOURCE3_SOURCE5 1559 0.0120
    bond_coeff 96 harmonic 276.95 1.448   # SOURCE4_SOURCE5 27 0.0139
    bond_coeff 97 harmonic 635.23 1.225   # SOURCE4_SOURCE5 35 0.0033
    bond_coeff 98 harmonic 402.33 1.339   # SOURCE1_SOURCE5 85 0.0126
    bond_coeff 99 harmonic 371.26 1.360   # SOURCE1_SOURCE5 548 0.0107
    bond_coeff 100 harmonic 292.48 1.669   # SOURCE3_SOURCE5 87 0.0126
    bond_coeff 101 harmonic 179.93 1.834   # SOURCE3 5 0.0042
    bond_coeff 102 harmonic 186.11 1.822   # SOUECE3 1
    bond_coeff 103 harmonic 166.18 1.863   # SOURCE4_SOURCE5 15 0.0083
    bond_coeff 104 harmonic 275.11 1.689   # SOURCE3_SOURCE5 60 0.0472
    bond_coeff 105 harmonic 275.11 1.689   # SOURCE3_SOURCE5 8 0.0019
    bond_coeff 106 harmonic 362.64 1.610   # SOURCE2 1
    bond_coeff 107 harmonic 247.65 1.734   # SOURCE3 4 0.0034
    bond_coeff 108 harmonic 229.42 1.760   # SOUECE3 1
    bond_coeff 109 harmonic 229.42 1.760   # SOUECE3 1
    bond_coeff 110 harmonic 215.23 1.782   # SOURCE4_SOURCE5 13 0.0077
    bond_coeff 111 harmonic 246.19 1.736   # SOURCE1 209 0.0155
    bond_coeff 112 harmonic 232.52 1.538   # SOURCE1_SOURCE5 88072 0.0058
    bond_coeff 113 harmonic 250.32 1.516   # SOURCE1_SOURCE5 10699 0.0054
    bond_coeff 114 harmonic 262.64 1.502   # SOURCE3_SOURCE5 3926 0.0049
    bond_coeff 115 harmonic 262.64 1.502   # SOURCE3_SOURCE5 3926 0.0049
    bond_coeff 116 harmonic 250.06 1.516   # SOURCE3_SOURCE5 1210 0.0060
    bond_coeff 117 harmonic 250.23 1.516   # SOURCE3_SOURCE5 345 0.0071
    bond_coeff 118 harmonic 155.52 1.804   # SOURCE1_SOURCE5 1173 0.0119
    bond_coeff 119 harmonic 284.82 1.478   # SOURCE1 7
    bond_coeff 120 harmonic 274.17 1.489   # SOURCE1 11
    bond_coeff 121 harmonic 247.95 1.518   # SOURCE1_SOURCE5 1561 0.0054
    bond_coeff 122 harmonic 236.93 1.532   # SOURCE1_SOURCE5 522 0.0055
    bond_coeff 123 harmonic 352.65 1.350   # SOURCE1_SOURCE5 2188 0.0139
    bond_coeff 124 harmonic 375.92 1.097   # SOURCE3_SOURCE5 112144 0.0055
    bond_coeff 125 harmonic 377.33 1.096   # SOURCE3_SOURCE5 2681 0.0032
    bond_coeff 126 harmonic 379.47 1.095   # SOURCE4_SOURCE5 64 0.0028
    bond_coeff 127 harmonic 375.92 1.097   # SOURCE3_SOURCE5 133628 0.0015
    bond_coeff 128 harmonic 386.49 1.091   # SOURCE3_SOURCE5 6495 0.0022
    bond_coeff 129 harmonic 88.97 2.212   # SOURCE1_SOURCE5 35 0.0128
    bond_coeff 130 harmonic 292.28 1.433   # SOURCE3_SOURCE5 7 0.0033
    bond_coeff 131 harmonic 259.91 1.466   # SOURCE1_SOURCE5 816 0.0087
    bond_coeff 132 harmonic 263.77 1.462   # SOURCE1_SOURCE5 4576 0.0061
    bond_coeff 133 harmonic 261.19 1.465   # SOURCE1_SOURCE5 15206 0.0039
    bond_coeff 134 harmonic 222.58 1.511   # SOURCE1_SOURCE5 2375 0.0125
    bond_coeff 135 harmonic 262.85 1.463   # SOURCE3_SOURCE5 1732 0.0077
    bond_coeff 136 harmonic 269.31 1.456   # SOURCE3 9 0.0109
    bond_coeff 137 harmonic 269.31 1.456   # SOURCE3 9
    bond_coeff 138 harmonic 261.84 1.464   # SOURCE3_SOURCE5 3492 0.0064
    bond_coeff 139 harmonic 206.37 1.533   # SOURCE1_SOURCE5 150 0.0187
    bond_coeff 140 harmonic 438.11 1.317   # SOURCE4 8 0.0193
    bond_coeff 141 harmonic 293.40 1.423   # SOURCE1_SOURCE5 8884 0.0067
    bond_coeff 142 harmonic 284.76 1.432   # SOURCE1_SOURCE5 17971 0.0103
    bond_coeff 143 harmonic 169.71 1.855   # SOURCE3 9 0.0125
    bond_coeff 144 harmonic 168.21 1.858   # SOURCE3_SOURCE5 221 0.0094
    bond_coeff 145 harmonic 177.58 1.839   # SOURCE3_SOURCE5 45 0.0106
    bond_coeff 146 harmonic 177.19 1.839   # SOURCE1_SOURCE5 408 0.0183
    bond_coeff 147 harmonic 182.68 1.829   # SOURCE3_SOURCE5 35 0.0083
    bond_coeff 148 harmonic 177.09 1.840   # SOURCE3_SOURCE5 39 0.0126
    bond_coeff 149 harmonic 180.03 1.845   # SOURCE3 4 0.0185
    bond_coeff 150 harmonic 187.48 1.831   # SOURCE1_SOURCE5 326 0.0096
    bond_coeff 151 harmonic 200.07 1.808   # SOURCE1_SOURCE5 644 0.0143
    bond_coeff 152 harmonic 180.78 1.843   # SOURCE3_SOURCE5 189 0.0058
    bond_coeff 153 harmonic 182.96 1.839   # SOURCE1_SOURCE5 2732 0.0105
    bond_coeff 154 harmonic 181.64 1.842   # SOURCE3_SOURCE5 99 0.0121
    bond_coeff 155 harmonic 199.39 1.809   # SOURCE3_SOURCE5 162 0.0094
    bond_coeff 156 harmonic 378.57 1.398   # SOURCE1_SOURCE5 121206 0.0061
    bond_coeff 157 harmonic 308.19 1.456   # SOURCE1_SOURCE5 2424 0.0121
    bond_coeff 158 harmonic 308.19 1.456   # SOURCE1_SOURCE5 2424 0.0121
    bond_coeff 159 harmonic 286.51 1.476   # SOURCE1_SOURCE5 1750 0.0089
    bond_coeff 160 harmonic 286.51 1.476   # SOURCE1_SOURCE5 1750 0.0089
    bond_coeff 161 harmonic 334.12 1.433   # SOURCE1_SOURCE5 318 0.0029
    bond_coeff 162 harmonic 334.12 1.433   # SOURCE1_SOURCE5 318 0.0029
    bond_coeff 163 harmonic 181.97 1.750   # SOURCE1_SOURCE5 2919 0.0059
    bond_coeff 164 harmonic 368.44 1.406   # CORR_SOURCE5 2042 0.0049
    bond_coeff 165 harmonic 368.44 1.406   # CORR_SOURCE5 2042 0.0049
    bond_coeff 166 harmonic 273.13 1.490   # SOURCE1_SOURCE5 165 0.0091
    bond_coeff 167 harmonic 250.49 1.515   # SOURCE4_SOURCE5 35 0.0055
    bond_coeff 168 harmonic 353.59 1.349   # SOURCE1_SOURCE5 1239 0.0057
    bond_coeff 169 harmonic 390.15 1.089   # SOURCE3_SOURCE5 2643 0.0010
    bond_coeff 170 harmonic 392.37 1.088   # SOURCE3_SOURCE5 299 0.0007
    bond_coeff 171 harmonic 395.72 1.086   # SOURCE3_SOURCE5 65456 0.0010
    bond_coeff 172 harmonic 108.27 2.129   # SOURCE1_SOURCE5 61 0.0076
    bond_coeff 173 harmonic 420.66 1.335   # SOURCE3_SOURCE5 6 0.0078
    bond_coeff 174 harmonic 476.53 1.303   # SOURCE4 7 0.0058
    bond_coeff 175 harmonic 315.21 1.412   # SOURCE3_SOURCE5 1254 0.0090
    bond_coeff 176 harmonic 244.03 1.484   # SOURCE1_SOURCE5 28 0.0065
    bond_coeff 177 harmonic 349.52 1.384   # SOURCE1_SOURCE5 2751 0.0095
    bond_coeff 178 harmonic 414.24 1.339   # SOURCE3_SOURCE5 6806 0.0055
    bond_coeff 179 harmonic 394.62 1.352   # SOURCE1_SOURCE5 2672 0.0030
    bond_coeff 180 harmonic 394.62 1.352   # SOURCE1_SOURCE5 2672 0.0030
    bond_coeff 181 harmonic 320.07 1.408   # SOURCE1_SOURCE5 276 0.0093
    bond_coeff 182 harmonic 320.07 1.408   # SOURCE1_SOURCE5 276 0.0093
    bond_coeff 183 harmonic 347.06 1.386   # SOURCE1_SOURCE5 2785 0.0134
    bond_coeff 184 harmonic 257.38 1.469   # SOURCE1_SOURCE5 454 0.0049
    bond_coeff 185 harmonic 606.45 1.236   # SOURCE4_SOURCE5 17 0.0088
    bond_coeff 186 harmonic 365.55 1.364   # SOURCE1_SOURCE5 3637 0.0062
    bond_coeff 187 harmonic 357.53 1.370   # SOURCE1_SOURCE5 6900 0.0064
    bond_coeff 188 harmonic 176.94 1.840   # SOUECE3 1
    bond_coeff 189 harmonic 184.18 1.826   # SOURCE1_SOURCE5 156 0.0180
    bond_coeff 190 harmonic 194.74 1.806   # SOUECE3 1
    bond_coeff 191 harmonic 200.84 1.795   # SOURCE1_SOURCE5 577 0.0028
    bond_coeff 192 harmonic 182.48 1.829   # SOURCE3 10 0.0042
    bond_coeff 193 harmonic 182.48 1.829   # SOURCE3 10 0.0042
    bond_coeff 194 harmonic 184.54 1.825   # SOURCE3 5 0.0168
    bond_coeff 195 harmonic 189.18 1.816   # SOURCE4_SOURCE5 34 0.0098
    bond_coeff 196 harmonic 244.02 1.739   # SOURCE3 2
    bond_coeff 197 harmonic 211.54 1.788   # SOURCE1 51 0.0048
    bond_coeff 198 harmonic 224.85 1.767   # SOURCE1_SOURCE5 258 0.0041
    bond_coeff 199 harmonic 215.91 1.781   # SOURCE4_SOURCE5 40 0.0053
    bond_coeff 200 harmonic 216.10 1.781   # SOURCE1_SOURCE5 1016 0.0068
    bond_coeff 201 harmonic 190.35 1.825   # SOURCE4_SOURCE5 90 0.0050
    bond_coeff 202 harmonic 209.78 1.791   # SOURCE3_SOURCE5 703 0.0076
    bond_coeff 203 harmonic 303.33 1.460   # SOUECE3 1
    bond_coeff 204 harmonic 368.17 1.406   # SOURCE3 2 0.0370
    bond_coeff 205 harmonic 224.38 1.548   # SOURCE1_SOURCE5 254 0.0090
    bond_coeff 206 harmonic 243.22 1.524   # SOURCE1_SOURCE5 12697 0.0077
    bond_coeff 207 harmonic 272.66 1.491   # SOURCE1_SOURCE5 4357 0.0085
    bond_coeff 208 harmonic 295.35 1.468   # SOURCE3_SOURCE5 1864 0.0130
    bond_coeff 209 harmonic 340.18 1.428   # SOURCE1_SOURCE5 4559 0.0096
    bond_coeff 210 harmonic 416.13 1.373   # SOURCE3_SOURCE5 8451 0.0091
    bond_coeff 211 harmonic 309.82 1.454   # CORR_SOURCE5 396 0.0089
    bond_coeff 212 harmonic 427.69 1.366   # CORR_SOURCE5 156 0.0107
    bond_coeff 213 harmonic 342.76 1.426   # SOURCE1_SOURCE5 109 0.0049
    bond_coeff 214 harmonic 341.16 1.427   # SOURCE1 560
    bond_coeff 215 harmonic 190.08 1.735   # CORR_SOURCE5 137 0.0076
    bond_coeff 216 harmonic 290.53 1.472   # CORR_SOURCE5 37 0.0035
    bond_coeff 217 harmonic 295.35 1.468   # SOURCE3_SOURCE5 1864 0.0130
    bond_coeff 218 harmonic 280.40 1.482   # SOURCE1_SOURCE5 3022 0.0115
    bond_coeff 219 harmonic 280.40 1.482   # SOURCE1_SOURCE5 3022 0.0115
    bond_coeff 220 harmonic 364.99 1.341   # SOURCE4_SOURCE5 70 0.0039
    bond_coeff 221 harmonic 312.91 1.451   # SOURCE3_SOURCE5 11 0.0089
    bond_coeff 222 harmonic 312.91 1.451   # SOURCE3_SOURCE5 11 0.0089
    bond_coeff 223 harmonic 403.88 1.082   # SOURCE3_SOURCE5 4457 0.0016
    bond_coeff 224 harmonic 403.49 1.082   # SOURCE3_SOURCE5 879 0.0012
    bond_coeff 225 harmonic 400.06 1.084   # SOURCE3_SOURCE5 4706 0.0018
    bond_coeff 226 harmonic 156.23 1.803   # SOURCE3_SOURCE5 16 0.0187
    bond_coeff 227 harmonic 500.74 1.290   # CORR_SOURCE5 156 0.0074
    bond_coeff 228 harmonic 353.83 1.381   # SOURCE3_SOURCE5 1142 0.0085
    bond_coeff 229 harmonic 236.72 1.493   # SOURCE4 7 0.0148
    bond_coeff 230 harmonic 354.49 1.380   # SOURCE3_SOURCE5 6739 0.0088
    bond_coeff 231 harmonic 369.10 1.369   # SOURCE1_SOURCE5 2269 0.0086
    bond_coeff 232 harmonic 450.71 1.317   # SOURCE3_SOURCE5 4612 0.0083
    bond_coeff 233 harmonic 356.61 1.379   # SOURCE4_SOURCE5 82 0.0119
    bond_coeff 234 harmonic 485.08 1.298   # CORR_SOURCE5 41 0.0113
    bond_coeff 235 harmonic 363.47 1.373   # SOURCE3_SOURCE5 976 0.0106
    bond_coeff 236 harmonic 296.62 1.429   # SOURCE4_SOURCE5 386 0.0074
    bond_coeff 237 harmonic 389.45 1.347   # CORR_SOURCE5 248 0.0073
    bond_coeff 238 harmonic 367.90 1.362   # SOURCE3_SOURCE5 1859 0.0083
    bond_coeff 239 harmonic 240.75 1.733   # SOURCE3 84 0.0161
    bond_coeff 240 harmonic 223.28 1.769   # SOURCE4_SOURCE5 22 0.0030
    bond_coeff 241 harmonic 231.98 1.756   # SOURCE3_SOURCE5 2011 0.0134
    bond_coeff 242 harmonic 198.26 1.811   # SOURCE4_SOURCE5 44 0.0033
    bond_coeff 243 harmonic 214.05 1.784   # CORR_SOURCE5 73 0.0082
    bond_coeff 244 harmonic 360.20 1.412   # SOURCE2 1
    bond_coeff 245 harmonic 265.90 1.498   # SOURCE1_SOURCE5 246 0.0109
    bond_coeff 246 harmonic 222.38 1.551   # SOURCE1_SOURCE5 374 0.0059
    bond_coeff 247 harmonic 340.18 1.428   # SOURCE1_SOURCE5 4559 0.0096
    bond_coeff 248 harmonic 427.69 1.366   # CORR_SOURCE5 156 0.0107
    bond_coeff 249 harmonic 309.82 1.454   # CORR_SOURCE5 396 0.0089
    bond_coeff 250 harmonic 341.16 1.427   # SOURCE1 560
    bond_coeff 251 harmonic 342.76 1.426   # SOURCE1_SOURCE5 109 0.0049
    bond_coeff 252 harmonic 190.08 1.735   # CORR_SOURCE5 137 0.0076
    bond_coeff 253 harmonic 290.53 1.472   # CORR_SOURCE5 37 0.0035
    bond_coeff 254 harmonic 259.34 1.505   # SOURCE4_SOURCE5 21 0.0007
    bond_coeff 255 harmonic 403.88 1.082   # SOURCE3_SOURCE5 4457 0.0016
    bond_coeff 256 harmonic 403.68 1.082   # SOURCE3_SOURCE5 578 0.0013
    bond_coeff 257 harmonic 400.06 1.084   # SOURCE3_SOURCE5 4706 0.0018
    bond_coeff 258 harmonic 500.74 1.290   # CORR_SOURCE5 156 0.0074
    bond_coeff 259 harmonic 353.83 1.381   # SOURCE3_SOURCE5 1142 0.0085
    bond_coeff 260 harmonic 354.49 1.380   # SOURCE3_SOURCE5 6739 0.0088
    bond_coeff 261 harmonic 450.71 1.317   # SOURCE3_SOURCE5 4612 0.0083
    bond_coeff 262 harmonic 369.10 1.369   # SOURCE1_SOURCE5 2269 0.0086
    bond_coeff 263 harmonic 485.08 1.298   # CORR_SOURCE5 41 0.0113
    bond_coeff 264 harmonic 363.47 1.373   # SOURCE3_SOURCE5 976 0.0106
    bond_coeff 265 harmonic 389.45 1.347   # CORR_SOURCE5 248 0.0073
    bond_coeff 266 harmonic 367.90 1.362   # SOURCE3_SOURCE5 1859 0.0083
    bond_coeff 267 harmonic 240.75 1.733   # SOURCE3 84
    bond_coeff 268 harmonic 231.98 1.756   # SOURCE3_SOURCE5 2011 0.0134
    bond_coeff 269 harmonic 214.05 1.784   # CORR_SOURCE5 73 0.0082
    bond_coeff 270 harmonic 306.13 1.457   # SOURCE1_SOURCE5 1000 0.0092
    bond_coeff 271 harmonic 452.16 1.351   # SOURCE1_SOURCE5 1908 0.0059
    bond_coeff 272 harmonic 341.16 1.427   # SOURCE1_SOURCE5 238 0.0053
    bond_coeff 273 harmonic 336.29 1.431   # SOURCE1 22
    bond_coeff 274 harmonic 174.72 1.764   # SOURCE4_SOURCE5 90 0.0111
    bond_coeff 275 harmonic 261.83 1.502   # SOURCE4_SOURCE5 31 0.0075
    bond_coeff 276 harmonic 250.06 1.516   # SOURCE4_SOURCE5 53 0.0043
    bond_coeff 277 harmonic 385.40 1.092   # CORR_SOURCE5 315 0.0033
    bond_coeff 278 harmonic 391.44 1.088   # SOURCE3_SOURCE5 2751 0.0014
    bond_coeff 279 harmonic 461.59 1.311   # CORR_SOURCE5 16 0.0049
    bond_coeff 280 harmonic 506.97 1.287   # SOURCE1_SOURCE5 896 0.0038
    bond_coeff 281 harmonic 301.69 1.424   # CORR_SOURCE5 209 0.0059
    bond_coeff 282 harmonic 305.30 1.421   # SOURCE4_SOURCE5 11 0.0050
    bond_coeff 283 harmonic 336.57 1.394   # SOURCE3_SOURCE5 69 0.0151
    bond_coeff 284 harmonic 489.14 1.296   # CORR_SOURCE5 101 0.0097
    bond_coeff 285 harmonic 341.71 1.390   # CORR_SOURCE5 300 0.0133
    bond_coeff 286 harmonic 384.73 1.350   # CORR_SOURCE5 58 0.0102
    bond_coeff 287 harmonic 355.66 1.371   # CORR_SOURCE5 96 0.0128
    bond_coeff 288 harmonic 190.37 1.814   # SOUECE3 1
    bond_coeff 289 harmonic 188.22 1.818   # SOURCE3 8 0.0108
    bond_coeff 290 harmonic 186.64 1.821   # SOURCE3 6 0.0046
    bond_coeff 291 harmonic 194.96 1.806   # SOURCE3_SOURCE5 22 0.0142
    bond_coeff 292 harmonic 291.39 1.680   # SOUECE3 1
    bond_coeff 293 harmonic 215.60 1.781   # SOURCE4_SOURCE5 56 0.0098
    bond_coeff 294 harmonic 193.92 1.819   # SOURCE3_SOURCE5 30 0.0101
    bond_coeff 295 harmonic 211.48 1.788   # SOURCE3_SOURCE5 41 0.0169
    bond_coeff 296 harmonic 387.77 1.325   # SOURCE2 6 0.0147
    bond_coeff 297 harmonic 306.13 1.457   # SOURCE1_SOURCE5 1000 0.0092
    bond_coeff 298 harmonic 336.29 1.431   # SOURCE1 22
    bond_coeff 299 harmonic 341.16 1.427   # SOURCE1_SOURCE5 238 0.0053
    bond_coeff 300 harmonic 385.40 1.092   # CORR_SOURCE5 315 0.0033
    bond_coeff 301 harmonic 391.44 1.088   # SOURCE3_SOURCE5 2751 0.0014
    bond_coeff 302 harmonic 461.59 1.311   # CORR_SOURCE5 16 0.0049
    bond_coeff 303 harmonic 506.97 1.287   # SOURCE1_SOURCE5 896 0.0038
    bond_coeff 304 harmonic 301.69 1.424   # CORR_SOURCE5 209 0.0059
    bond_coeff 305 harmonic 489.14 1.296   # CORR_SOURCE5 101 0.0097
    bond_coeff 306 harmonic 336.57 1.394   # SOURCE3_SOURCE5 62 0.0156
    bond_coeff 307 harmonic 341.71 1.390   # CORR_SOURCE5 300 0.0133
    bond_coeff 308 harmonic 384.73 1.350   # CORR_SOURCE5 58 0.0102
    bond_coeff 309 harmonic 355.66 1.371   # CORR_SOURCE5 96 0.0128
    bond_coeff 310 harmonic 190.37 1.814   # SOUECE3 1
    bond_coeff 311 harmonic 188.22 1.818   # SOURCE3 8
    bond_coeff 312 harmonic 186.64 1.821   # SOURCE3 6
    bond_coeff 313 harmonic 194.96 1.806   # SOURCE3_SOURCE5 17 0.0171
    bond_coeff 314 harmonic 291.39 1.680   # SOUECE3 1
    bond_coeff 315 harmonic 193.92 1.819   # SOURCE3_SOURCE5 25 0.0105
    bond_coeff 316 harmonic 211.48 1.788   # SOURCE3_SOURCE5 36 0.0177
    bond_coeff 317 harmonic 421.79 1.369   # SOURCE1_SOURCE5 62 0.0025
    bond_coeff 318 harmonic 811.54 1.206   # SOURCE1_SOURCE5 156 0.0023
    bond_coeff 319 harmonic 879.32 1.157   # SOURCE1_SOURCE5 879 0.0015
    bond_coeff 320 harmonic 435.38 1.326   # SOURCE4_SOURCE5 68 0.0013
    bond_coeff 321 harmonic 339.39 1.621   # SOURCE3 11 0.2008
    bond_coeff 322 harmonic 350.25 1.112   # SOURCE4_SOURCE5 506 0.0025
    bond_coeff 323 harmonic 361.80 1.105   # SOURCE4_SOURCE5 163 0.0038
    bond_coeff 324 harmonic 368.78 1.101   # SOURCE3 53 0.0102
    bond_coeff 325 harmonic 421.79 1.369   # SOURCE1_SOURCE5 62 0.0025
    bond_coeff 326 harmonic 879.32 1.157   # SOURCE1_SOURCE5 879 0.0015
    bond_coeff 327 harmonic 435.38 1.326   # SOURCE4_SOURCE5 51 0.0014
    bond_coeff 328 harmonic 339.39 1.621   # SOURCE3 11
    bond_coeff 329 harmonic 89.53 2.209   # SOURCE3 4 0.0365
    bond_coeff 330 harmonic 79.29 2.267   # SOURCE1 2 0.0395
    bond_coeff 331 harmonic 172.69 1.768   # SOURCE1_SOURCE5 42 0.0071
    bond_coeff 332 harmonic 161.13 1.792   # SOURCE2_SOURCE5 28 0.0103
    bond_coeff 333 harmonic 217.59 1.630   # SOUECE3 1
    bond_coeff 334 harmonic 123.81 1.819   # SOURCE3 6 0.1020
    bond_coeff 335 harmonic 139.52 1.777   # SOURCE4_SOURCE5 16 0.0044
    bond_coeff 336 harmonic 167.01 1.716   # SOURCE4_SOURCE5 17 0.0049
    bond_coeff 337 harmonic 149.71 1.753   # SOURCE3 4 0.0098
    bond_coeff 338 harmonic 118.36 1.835   # SOURCE3 7 0.2083
    bond_coeff 339 harmonic 145.39 1.763   # SOURCE3 1
    bond_coeff 340 harmonic 116.71 1.840   # SOURCE2 1
    bond_coeff 341 harmonic 331.00 1.483   # SOURCE3 4
    bond_coeff 342 harmonic 169.11 1.690   # SOURCE2 1
    bond_coeff 343 harmonic 149.95 1.730   # SOURCE3 4
    bond_coeff 344 harmonic 143.51 2.070   # SOURCE3 6 0.0108
    bond_coeff 345 harmonic 167.79 2.008   # SOURCE1 111
    bond_coeff 346 harmonic 167.79 2.008   # SOURCE1 111
    bond_coeff 347 harmonic 167.79 2.008   # SOURCE1 111
    bond_coeff 348 harmonic 172.59 1.997   # SOURCE1 46
    bond_coeff 349 harmonic 230.41 2.072   # SOURCE1 6
    bond_coeff 350 harmonic 185.62 2.161   # SOURCE2 1
    bond_coeff 351 harmonic 230.41 2.072   # SOURCE1 6
    bond_coeff 352 harmonic 230.41 2.072   # SOURCE1 6
    bond_coeff 353 harmonic 230.41 2.072   # SOURCE1 6
    bond_coeff 354 harmonic 230.41 2.072   # SOURCE1 6
    bond_coeff 355 harmonic 230.41 2.072   # SOURCE1 6
    bond_coeff 356 harmonic 230.41 2.072   # SOURCE1 6
    bond_coeff 357 harmonic 306.30 1.420   # SOUECE3 1
    bond_coeff 358 harmonic 197.87 1.546   # SOURCE3 4 0.0388
    bond_coeff 359 harmonic 356.21 1.379   # SOURCE1_SOURCE5 9463 0.0137
    bond_coeff 360 harmonic 346.03 1.387   # CORR_SOURCE5 179 0.0121
    bond_coeff 361 harmonic 346.03 1.387   # CORR_SOURCE5 179 0.0121
    bond_coeff 362 harmonic 340.70 1.391   # CORR_SOURCE5 87 0.0140
    bond_coeff 363 harmonic 340.70 1.391   # CORR_SOURCE5 87 0.0140
    bond_coeff 364 harmonic 201.86 1.540   # SOUECE3 1
    bond_coeff 365 harmonic 652.57 1.218   # SOURCE1_SOURCE5 27083 0.0110
    bond_coeff 366 harmonic 383.13 1.351   # SOURCE1_SOURCE5 3610 0.0055
    bond_coeff 367 harmonic 372.94 1.358   # SOURCE1_SOURCE5 5555 0.0163
    bond_coeff 368 harmonic 150.04 1.900   # SOUECE3 1
    bond_coeff 369 harmonic 157.13 1.883   # SOURCE3 6 0.0129